4062846612502089680506,5,1,2,04,12,1,2,04,7,1,2,01,14,1,2,012,2,1,2,010,13,1,2,02,5,1,2,03,8,1,2,011,14,1,2,06,6,1,2,09,7,1,2,06,14,1,2,01,12,1,2,015,1,1,2,09,4,1,2,013,2,1,2,010,2,1,2,07,12,1,2,011,2,1,2,01,15,1,2,013,12,1,2,01,10,1,2,02,6,1,2,02,15,1,2,01,5,1,2,02,4,1,2,09,4,1,2,014,6,1,2,03,13,1,2,09,8,1,2,010,13,1,2,02,9,1,2,013,7,1,2,08,14,1,2,04,10,1,2,06,1,1,2,06,11,1,2,02,6,1,2,07,10,1,2,08,10,1,2,010,5,1,2,08,10,1,2,03,9,1,2,014,4,1,2,010,1,1,2,05,11,1,2,07,12,1,2,04,6,1,2,03,10,1,2,010,10,1,2,0